(set-logic QF_NRA)
(declare-fun x1 () Real)
(declare-fun x2 () Real)
(declare-fun x3 () Real)
(declare-fun x4 () Real)
(declare-fun x5 () Real)
(declare-fun x6 () Real)
(declare-fun x7 () Real)
(declare-fun x8 () Real)
(declare-fun x9 () Real)

(assert (>= (- 9 ( + ( + (* -5 (* x1 x1)) (* -1 (* x2 x3)) ) (* x1 x4) )) 0))
(assert (>= (- 7 ( + ( + ( + (* 8 (* x1 x1)) (* 5 (* x2 x2)) ) (* 10 x3) ) (* 8 (* x3 x5)) )) 0))
(assert (>= (- -9 ( + ( + ( + (* 6 (* x1 x5)) (* 9 x1) ) (* 9 (* x1 x2)) ) (* 3 (* x6 x6)) )) 0))
(assert (>= (- -3 ( + ( + (* -4 (* x2 x2)) (* -7 (* x1 x7)) ) (* -10 (* x2 x5)) )) 0))
(assert (>= (- 8 ( + (* -7 (* x5 x8)) (* 8 (* x1 x2)) )) 0))
(assert (>= (- -5 ( + ( + (* -8 (* x3 x9)) (* -2 x1) ) (* -9 (* x3 x5)) )) 0))
(assert (>= (- 1 ( + ( + (* 2 (* x2 x2)) (* -2 (* x1 x1)) ) (* -5 (* x5 x7)) )) 0))
(assert (>= (- 1 (* -1 (* x2 x4))) 0))
(assert (>= (- 5 (* 3 (* x3 x3))) 0))
(assert (>= (- -4 ( + (* 6 (* x1 x1)) (* 3 (* x1 x2)) )) 0))
(check-sat)
(exit)